c This cnf file is generated with the following input: k = 3, n = 150, r = 0.2
p cnf 150 30
-83 51 -116 0
-81 13 -15 0
65 27 45 0
-103 140 -143 0
145 37 -72 0
-122 -15 47 0
147 28 44 0
-115 116 -37 0
49 28 -111 0
113 10 60 0
-37 123 -109 0
129 -40 -44 0
145 30 -128 0
-82 -135 -75 0
-7 -58 -11 0
-66 98 121 0
17 88 -108 0
-68 -28 -45 0
82 24 104 0
-119 106 30 0
-119 76 -15 0
3 -39 24 0
-132 115 -73 0
-116 -87 43 0
32 -102 74 0
115 5 -16 0
67 -4 -106 0
-58 46 94 0
-8 76 -48 0
49 86 -42 0
